170 44 192 146 76 145 87 92 123 89 196 
164 34 143 46 2 171 55 63 114 
30 134 150 122 167 165 188 158 85 
17 181 133 194 79 64 39 107 155 175 
41 182 184 127 16 138 135 149 59 
62 131 144 35 128 139 73 109 198 147 
91 66 12 40 25 100 179 28 183 166 
45 48 26 176 7 1 49 111 104 
101 27 156 112 168 14 96 130 15 19 102 
113 83 54 186 77 172 42 163 67 
20 23 152 6 51 174 136 189 94 124 
68 120 50 141 69 90 95 108 36 84 
148 103 154 97 61 195 75 74 137 
178 197 31 153 169 29 162 116 10 
190 5 160 115 9 187 142 185 56 
93 159 13 43 71 121 99 53 60 
57 119 193 126 33 105 200 86 
21 80 132 98 157 117 82 106 
118 180 11 4 72 191 65 
177 3 18 22 151 37 81 
32 173 24 70 52 
161 38 58 125 140 
78 129 47 110 
88 8 199 

